146 0 450 450
453 73 28 49 418 132 205 28 498 249 148 467 436 366 380 403 385 160 473 152 267 11 42 166 125 335 196 45 366 186 372 3 95 110 314 201 381 165 267 134 126 87 466 159 356 448 62 366 143 294
357 206 343 470 271 271 118 366 328 34 170 423 432 315 122 45 124 365 240 498 280 227 278 397 237 450 154 299 37 459 110 243 62 111 313 20 231 80 443 283 422 499 80 88 35 349 386 460 163 92
45 85 57 56 81 92 100 10 68 35 71 98 25 56 95 27 1 99 47 86 44 13 56 52 64 59 62 28 40 6 83 56 64 74 14 70 20 53 58 88 7 79 72 88 7 23 35 21 21 82
57 59 14 88 79 49 63 32 57 12 6 51 17 9 57 66 20 6 66 81 1 3 15 22 7 65 16 14 78 55 43 75 82 22 86 64 7 93 9 18 95 80 60 9 85 77 23 68 3 68